NAME          
ROWS
 N  OBJ
 L  c2
 L  c3
 L  c4
 L  c5
 L  c6
 L  c7
 L  c8
 L  c9
 L  c10
 L  c11
 G  c1
COLUMNS
    ss[1]     c1        1
    ss[1]     OBJ       1000
    s[1]      c2        1
    s[1]      OBJ       -1000
    s[2]      c3        1
    s[2]      OBJ       -1000
    s[3]      c4        1
    s[3]      OBJ       -1000
    s[4]      c5        1
    s[4]      OBJ       -1000
    s[5]      c6        1
    s[5]      OBJ       -1000
    s[6]      c7        1
    s[6]      OBJ       -1000
    s[7]      c8        1
    s[7]      OBJ       -1000
    s[8]      c9        1
    s[8]      OBJ       -1000
    s[9]      c10       1
    s[9]      OBJ       -1000
    s[10]     c11       1
    s[10]     OBJ       -1000
    MARKER    'MARKER'                 'INTORG'
    x[1]      c2        322
    x[1]      c3        183
    x[1]      c4        794
    x[1]      c5        624
    x[1]      c6        962
    x[1]      c7        914
    x[1]      c8        414
    x[1]      c9        511
    x[1]      c10       647
    x[1]      c11       364
    x[1]      c1        556
    x[1]      OBJ       -878
    x[2]      c2        764
    x[2]      c3        694
    x[2]      c4        939
    x[2]      c5        509
    x[2]      c6        780
    x[2]      c7        120
    x[2]      c8        618
    x[2]      c9        555
    x[2]      c10       8
    x[2]      c11       707
    x[2]      c1        736
    x[2]      OBJ       -673
    x[3]      c2        350
    x[3]      c3        671
    x[3]      c4        699
    x[3]      c5        962
    x[3]      c6        543
    x[3]      c7        340
    x[3]      c8        837
    x[3]      c9        933
    x[3]      c10       204
    x[3]      c11       724
    x[3]      c1        301
    x[3]      OBJ       -1198
    x[4]      c2        539
    x[4]      c3        834
    x[4]      c4        516
    x[4]      c5        322
    x[4]      c6        762
    x[4]      c7        645
    x[4]      c8        85
    x[4]      c9        952
    x[4]      c10       898
    x[4]      c11       645
    x[4]      c1        111
    x[4]      OBJ       -1222
    x[5]      c2        319
    x[5]      c3        24
    x[5]      c4        181
    x[5]      c5        355
    x[5]      c6        827
    x[5]      c7        961
    x[5]      c8        108
    x[5]      c9        468
    x[5]      c10       349
    x[5]      c11       278
    x[5]      c1        704
    x[5]      OBJ       -665
    x[6]      c2        810
    x[6]      c3        238
    x[6]      c4        273
    x[6]      c5        657
    x[6]      c6        965
    x[6]      c7        995
    x[6]      c8        106
    x[6]      c9        654
    x[6]      c10       238
    x[6]      c11       70
    x[6]      c1        408
    x[6]      OBJ       -1060
    x[7]      c2        996
    x[7]      c3        100
    x[7]      c4        170
    x[7]      c5        479
    x[7]      c6        587
    x[7]      c7        296
    x[7]      c8        311
    x[7]      c9        373
    x[7]      c10       692
    x[7]      c11       154
    x[7]      c1        163
    x[7]      OBJ       -1198
    x[8]      c2        713
    x[8]      c3        806
    x[8]      c4        720
    x[8]      c5        346
    x[8]      c6        935
    x[8]      c7        194
    x[8]      c8        218
    x[8]      c9        545
    x[8]      c10       742
    x[8]      c11       566
    x[8]      c1        315
    x[8]      OBJ       -1105
    x[9]      c2        982
    x[9]      c3        100
    x[9]      c4        138
    x[9]      c5        477
    x[9]      c6        40
    x[9]      c7        287
    x[9]      c8        506
    x[9]      c9        458
    x[9]      c10       156
    x[9]      c11       215
    x[9]      c1        670
    x[9]      OBJ       -739
    x[10]     c2        495
    x[10]     c3        330
    x[10]     c4        922
    x[10]     c5        997
    x[10]     c6        142
    x[10]     c7        706
    x[10]     c8        515
    x[10]     c9        295
    x[10]     c10       168
    x[10]     c11       353
    x[10]     c1        457
    x[10]     OBJ       -701
    x[11]     c2        389
    x[11]     c3        437
    x[11]     c4        901
    x[11]     c5        338
    x[11]     c6        494
    x[11]     c7        23
    x[11]     c8        495
    x[11]     c9        816
    x[11]     c10       772
    x[11]     c11       830
    x[11]     c1        357
    x[11]     OBJ       -1233
    x[12]     c2        175
    x[12]     c3        532
    x[12]     c4        440
    x[12]     c5        60
    x[12]     c6        539
    x[12]     c7        863
    x[12]     c8        945
    x[12]     c9        679
    x[12]     c10       276
    x[12]     c11       58
    x[12]     c1        916
    x[12]     OBJ       -570
    x[13]     c2        894
    x[13]     c3        14
    x[13]     c4        167
    x[13]     c5        819
    x[13]     c6        186
    x[13]     c7        970
    x[13]     c8        4
    x[13]     c9        225
    x[13]     c10       272
    x[13]     c11       920
    x[13]     c1        614
    x[13]     OBJ       -885
    x[14]     c2        959
    x[14]     c3        335
    x[14]     c4        983
    x[14]     c5        290
    x[14]     c6        114
    x[14]     c7        641
    x[14]     c8        512
    x[14]     c9        688
    x[14]     c10       779
    x[14]     c11       673
    x[14]     c1        60
    x[14]     OBJ       -1257
    x[15]     c2        26
    x[15]     c3        872
    x[15]     c4        410
    x[15]     c5        415
    x[15]     c6        709
    x[15]     c7        891
    x[15]     c8        207
    x[15]     c9        893
    x[15]     c10       955
    x[15]     c11       414
    x[15]     c1        373
    x[15]     OBJ       -1176
    x[16]     c2        326
    x[16]     c3        260
    x[16]     c4        798
    x[16]     c5        759
    x[16]     c6        374
    x[16]     c7        275
    x[16]     c8        537
    x[16]     c9        673
    x[16]     c10       644
    x[16]     c11       613
    x[16]     c1        182
    x[16]     OBJ       -1321
    x[17]     c2        528
    x[17]     c3        354
    x[17]     c4        305
    x[17]     c5        627
    x[17]     c6        836
    x[17]     c7        986
    x[17]     c8        846
    x[17]     c9        267
    x[17]     c10       976
    x[17]     c11       860
    x[17]     c1        129
    x[17]     OBJ       -1232
    x[18]     c2        823
    x[18]     c3        941
    x[18]     c4        608
    x[18]     c5        180
    x[18]     c6        782
    x[18]     c7        304
    x[18]     c8        238
    x[18]     c9        954
    x[18]     c10       921
    x[18]     c11       538
    x[18]     c1        767
    x[18]     OBJ       -532
    x[19]     c2        568
    x[19]     c3        578
    x[19]     c4        228
    x[19]     c5        577
    x[19]     c6        455
    x[19]     c7        707
    x[19]     c8        485
    x[19]     c9        171
    x[19]     c10       109
    x[19]     c11       428
    x[19]     c1        896
    x[19]     OBJ       -341
    x[20]     c2        533
    x[20]     c3        213
    x[20]     c4        774
    x[20]     c5        600
    x[20]     c6        454
    x[20]     c7        915
    x[20]     c8        790
    x[20]     c9        732
    x[20]     c10       272
    x[20]     c11       916
    x[20]     c1        178
    x[20]     OBJ       -1209
    x[21]     c2        486
    x[21]     c3        810
    x[21]     c4        658
    x[21]     c5        688
    x[21]     c6        861
    x[21]     c7        147
    x[21]     c8        873
    x[21]     c9        893
    x[21]     c10       477
    x[21]     c11       458
    x[21]     c1        975
    x[21]     OBJ       -348
    x[22]     c2        437
    x[22]     c3        201
    x[22]     c4        231
    x[22]     c5        324
    x[22]     c6        870
    x[22]     c7        362
    x[22]     c8        222
    x[22]     c9        845
    x[22]     c10       300
    x[22]     c11       512
    x[22]     c1        226
    x[22]     OBJ       -1184
    x[23]     c2        186
    x[23]     c3        676
    x[23]     c4        27
    x[23]     c5        501
    x[23]     c6        956
    x[23]     c7        237
    x[23]     c8        860
    x[23]     c9        81
    x[23]     c10       698
    x[23]     c11       463
    x[23]     c1        404
    x[23]     OBJ       -1158
    x[24]     c2        800
    x[24]     c3        713
    x[24]     c4        980
    x[24]     c5        147
    x[24]     c6        310
    x[24]     c7        98
    x[24]     c8        147
    x[24]     c9        458
    x[24]     c10       197
    x[24]     c11       801
    x[24]     c1        833
    x[24]     OBJ       -611
    x[25]     c2        720
    x[25]     c3        481
    x[25]     c4        181
    x[25]     c5        237
    x[25]     c6        96
    x[25]     c7        682
    x[25]     c8        528
    x[25]     c9        750
    x[25]     c10       396
    x[25]     c11       243
    x[25]     c1        575
    x[25]     OBJ       -511
    x[26]     c2        35
    x[26]     c3        682
    x[26]     c4        353
    x[26]     c5        964
    x[26]     c6        700
    x[26]     c7        478
    x[26]     c8        52
    x[26]     c9        338
    x[26]     c10       648
    x[26]     c11       569
    x[26]     c1        340
    x[26]     OBJ       -827
    x[27]     c2        686
    x[27]     c3        796
    x[27]     c4        452
    x[27]     c5        552
    x[27]     c6        643
    x[27]     c7        368
    x[27]     c8        11
    x[27]     c9        73
    x[27]     c10       312
    x[27]     c11       500
    x[27]     c1        321
    x[27]     OBJ       -810
    x[28]     c2        679
    x[28]     c3        315
    x[28]     c4        457
    x[28]     c5        577
    x[28]     c6        278
    x[28]     c7        608
    x[28]     c8        768
    x[28]     c9        290
    x[28]     c10       640
    x[28]     c11       556
    x[28]     c1        580
    x[28]     OBJ       -980
    x[29]     c2        518
    x[29]     c3        740
    x[29]     c4        946
    x[29]     c5        964
    x[29]     c6        510
    x[29]     c7        809
    x[29]     c8        288
    x[29]     c9        801
    x[29]     c10       291
    x[29]     c11       291
    x[29]     c1        425
    x[29]     OBJ       -895
    x[30]     c2        967
    x[30]     c3        54
    x[30]     c4        352
    x[30]     c5        668
    x[30]     c6        172
    x[30]     c7        320
    x[30]     c8        50
    x[30]     c9        609
    x[30]     c10       598
    x[30]     c11       375
    x[30]     c1        955
    x[30]     OBJ       -381
    x[31]     c2        43
    x[31]     c3        612
    x[31]     c4        129
    x[31]     c5        81
    x[31]     c6        838
    x[31]     c7        690
    x[31]     c8        248
    x[31]     c9        363
    x[31]     c10       256
    x[31]     c11       603
    x[31]     c1        739
    x[31]     OBJ       -707
    x[32]     c2        228
    x[32]     c3        1
    x[32]     c4        397
    x[32]     c5        521
    x[32]     c6        428
    x[32]     c7        780
    x[32]     c8        180
    x[32]     c9        195
    x[32]     c10       537
    x[32]     c11       193
    x[32]     c1        473
    x[32]     OBJ       -658
    x[33]     c2        932
    x[33]     c3        811
    x[33]     c4        863
    x[33]     c5        396
    x[33]     c6        968
    x[33]     c7        155
    x[33]     c8        370
    x[33]     c9        602
    x[33]     c10       430
    x[33]     c11       952
    x[33]     c1        946
    x[33]     OBJ       -380
    x[34]     c2        852
    x[34]     c3        123
    x[34]     c4        474
    x[34]     c5        535
    x[34]     c6        128
    x[34]     c7        158
    x[34]     c8        884
    x[34]     c9        371
    x[34]     c10       631
    x[34]     c11       526
    x[34]     c1        666
    x[34]     OBJ       -663
    x[35]     c2        934
    x[35]     c3        581
    x[35]     c4        878
    x[35]     c5        142
    x[35]     c6        790
    x[35]     c7        879
    x[35]     c8        978
    x[35]     c9        433
    x[35]     c10       952
    x[35]     c11       106
    x[35]     c1        630
    x[35]     OBJ       -1089
    x[36]     c2        834
    x[36]     c3        345
    x[36]     c4        227
    x[36]     c5        743
    x[36]     c6        277
    x[36]     c7        442
    x[36]     c8        977
    x[36]     c9        544
    x[36]     c10       737
    x[36]     c11       404
    x[36]     c1        462
    x[36]     OBJ       -812
    x[37]     c2        273
    x[37]     c3        979
    x[37]     c4        997
    x[37]     c5        308
    x[37]     c6        334
    x[37]     c7        870
    x[37]     c8        991
    x[37]     c9        258
    x[37]     c10       895
    x[37]     c11       91
    x[37]     c1        841
    x[37]     OBJ       -721
    x[38]     c2        613
    x[38]     c3        333
    x[38]     c4        814
    x[38]     c5        588
    x[38]     c6        628
    x[38]     c7        58
    x[38]     c8        154
    x[38]     c9        935
    x[38]     c10       847
    x[38]     c11       666
    x[38]     c1        2
    x[38]     OBJ       -1377
    x[39]     c2        70
    x[39]     c3        938
    x[39]     c4        184
    x[39]     c5        400
    x[39]     c6        190
    x[39]     c7        236
    x[39]     c8        848
    x[39]     c9        38
    x[39]     c10       549
    x[39]     c11       314
    x[39]     c1        778
    x[39]     OBJ       -655
    x[40]     c2        518
    x[40]     c3        773
    x[40]     c4        583
    x[40]     c5        556
    x[40]     c6        244
    x[40]     c7        938
    x[40]     c8        761
    x[40]     c9        722
    x[40]     c10       98
    x[40]     c11       420
    x[40]     c1        714
    x[40]     OBJ       -607
    x[41]     c2        30
    x[41]     c3        265
    x[41]     c4        206
    x[41]     c5        266
    x[41]     c6        606
    x[41]     c7        35
    x[41]     c8        352
    x[41]     c9        130
    x[41]     c10       310
    x[41]     c11       1
    x[41]     c1        855
    x[41]     OBJ       -103
    x[42]     c2        95
    x[42]     c3        347
    x[42]     c4        748
    x[42]     c5        517
    x[42]     c6        185
    x[42]     c7        993
    x[42]     c8        856
    x[42]     c9        126
    x[42]     c10       189
    x[42]     c11       198
    x[42]     c1        768
    x[42]     OBJ       -359
    x[43]     c2        46
    x[43]     c3        597
    x[43]     c4        718
    x[43]     c5        133
    x[43]     c6        257
    x[43]     c7        350
    x[43]     c8        317
    x[43]     c9        333
    x[43]     c10       943
    x[43]     c11       611
    x[43]     c1        141
    x[43]     OBJ       -964
    x[44]     c2        46
    x[44]     c3        38
    x[44]     c4        120
    x[44]     c5        883
    x[44]     c6        311
    x[44]     c7        429
    x[44]     c8        380
    x[44]     c9        888
    x[44]     c10       202
    x[44]     c11       217
    x[44]     c1        847
    x[44]     OBJ       -409
    x[45]     c2        999
    x[45]     c3        646
    x[45]     c4        79
    x[45]     c5        490
    x[45]     c6        926
    x[45]     c7        359
    x[45]     c8        562
    x[45]     c9        897
    x[45]     c10       662
    x[45]     c11       424
    x[45]     c1        325
    x[45]     OBJ       -1132
    x[46]     c2        716
    x[46]     c3        287
    x[46]     c4        361
    x[46]     c5        722
    x[46]     c6        258
    x[46]     c7        200
    x[46]     c8        532
    x[46]     c9        550
    x[46]     c10       316
    x[46]     c11       604
    x[46]     c1        765
    x[46]     OBJ       -507
    x[47]     c2        44
    x[47]     c3        594
    x[47]     c4        925
    x[47]     c5        881
    x[47]     c6        746
    x[47]     c7        358
    x[47]     c8        737
    x[47]     c9        283
    x[47]     c10       82
    x[47]     c11       80
    x[47]     c1        10
    x[47]     OBJ       -1485
    x[48]     c2        324
    x[48]     c3        914
    x[48]     c4        246
    x[48]     c5        767
    x[48]     c6        684
    x[48]     c7        688
    x[48]     c8        199
    x[48]     c9        407
    x[48]     c10       471
    x[48]     c11       799
    x[48]     c1        162
    x[48]     OBJ       -1294
    x[49]     c2        843
    x[49]     c3        125
    x[49]     c4        738
    x[49]     c5        384
    x[49]     c6        537
    x[49]     c7        551
    x[49]     c8        420
    x[49]     c9        822
    x[49]     c10       580
    x[49]     c11       386
    x[49]     c1        208
    x[49]     OBJ       -1167
    x[50]     c2        55
    x[50]     c3        785
    x[50]     c4        525
    x[50]     c5        331
    x[50]     c6        872
    x[50]     c7        322
    x[50]     c8        812
    x[50]     c9        150
    x[50]     c10       875
    x[50]     c11       848
    x[50]     c1        981
    x[50]     OBJ       -693
    x[51]     c2        451
    x[51]     c3        277
    x[51]     c4        757
    x[51]     c5        644
    x[51]     c6        375
    x[51]     c7        769
    x[51]     c8        622
    x[51]     c9        939
    x[51]     c10       440
    x[51]     c11       818
    x[51]     c1        638
    x[51]     OBJ       -725
    x[52]     c2        929
    x[52]     c3        582
    x[52]     c4        954
    x[52]     c5        253
    x[52]     c6        526
    x[52]     c7        279
    x[52]     c8        100
    x[52]     c9        162
    x[52]     c10       993
    x[52]     c11       697
    x[52]     c1        184
    x[52]     OBJ       -1128
    x[53]     c2        907
    x[53]     c3        405
    x[53]     c4        280
    x[53]     c5        908
    x[53]     c6        377
    x[53]     c7        214
    x[53]     c8        441
    x[53]     c9        685
    x[53]     c10       389
    x[53]     c11       524
    x[53]     c1        124
    x[53]     OBJ       -1118
    x[54]     c2        659
    x[54]     c3        618
    x[54]     c4        150
    x[54]     c5        712
    x[54]     c6        766
    x[54]     c7        673
    x[54]     c8        422
    x[54]     c9        213
    x[54]     c10       516
    x[54]     c11       99
    x[54]     c1        910
    x[54]     OBJ       -300
    x[55]     c2        932
    x[55]     c3        947
    x[55]     c4        148
    x[55]     c5        930
    x[55]     c6        237
    x[55]     c7        664
    x[55]     c8        431
    x[55]     c9        918
    x[55]     c10       840
    x[55]     c11       677
    x[55]     c1        332
    x[55]     OBJ       -1023
    x[56]     c2        194
    x[56]     c3        801
    x[56]     c4        456
    x[56]     c5        821
    x[56]     c6        503
    x[56]     c7        713
    x[56]     c8        301
    x[56]     c9        337
    x[56]     c10       91
    x[56]     c11       972
    x[56]     c1        634
    x[56]     OBJ       -596
    x[57]     c2        316
    x[57]     c3        943
    x[57]     c4        104
    x[57]     c5        311
    x[57]     c6        992
    x[57]     c7        542
    x[57]     c8        803
    x[57]     c9        809
    x[57]     c10       623
    x[57]     c11       675
    x[57]     c1        555
    x[57]     OBJ       -855
    x[58]     c2        193
    x[58]     c3        665
    x[58]     c4        728
    x[58]     c5        921
    x[58]     c6        532
    x[58]     c7        562
    x[58]     c8        452
    x[58]     c9        843
    x[58]     c10       815
    x[58]     c11       655
    x[58]     c1        55
    x[58]     OBJ       -1230
    x[59]     c2        165
    x[59]     c3        91
    x[59]     c4        766
    x[59]     c5        141
    x[59]     c6        690
    x[59]     c7        837
    x[59]     c8        976
    x[59]     c9        647
    x[59]     c10       356
    x[59]     c11       933
    x[59]     c1        396
    x[59]     OBJ       -962
    x[60]     c2        372
    x[60]     c3        974
    x[60]     c4        477
    x[60]     c5        375
    x[60]     c6        492
    x[60]     c7        949
    x[60]     c8        693
    x[60]     c9        793
    x[60]     c10       407
    x[60]     c11       456
    x[60]     c1        23
    x[60]     OBJ       -1473
    x[61]     c2        620
    x[61]     c3        63
    x[61]     c4        242
    x[61]     c5        769
    x[61]     c6        766
    x[61]     c7        303
    x[61]     c8        310
    x[61]     c9        997
    x[61]     c10       283
    x[61]     c11       643
    x[61]     c1        171
    x[61]     OBJ       -970
    x[62]     c2        381
    x[62]     c3        96
    x[62]     c4        395
    x[62]     c5        188
    x[62]     c6        859
    x[62]     c7        55
    x[62]     c8        69
    x[62]     c9        837
    x[62]     c10       796
    x[62]     c11       983
    x[62]     c1        310
    x[62]     OBJ       -922
    x[63]     c2        104
    x[63]     c3        971
    x[63]     c4        50
    x[63]     c5        395
    x[63]     c6        237
    x[63]     c7        192
    x[63]     c8        797
    x[63]     c9        983
    x[63]     c10       950
    x[63]     c11       198
    x[63]     c1        181
    x[63]     OBJ       -1228
    x[64]     c2        78
    x[64]     c3        303
    x[64]     c4        688
    x[64]     c5        592
    x[64]     c6        68
    x[64]     c7        903
    x[64]     c8        668
    x[64]     c9        878
    x[64]     c10       900
    x[64]     c11       215
    x[64]     c1        378
    x[64]     OBJ       -1101
    x[65]     c2        791
    x[65]     c3        586
    x[65]     c4        867
    x[65]     c5        209
    x[65]     c6        697
    x[65]     c7        315
    x[65]     c8        783
    x[65]     c9        851
    x[65]     c10       797
    x[65]     c11       671
    x[65]     c1        600
    x[65]     OBJ       -1120
    x[66]     c2        160
    x[66]     c3        812
    x[66]     c4        610
    x[66]     c5        850
    x[66]     c6        189
    x[66]     c7        986
    x[66]     c8        805
    x[66]     c9        521
    x[66]     c10       19
    x[66]     c11       597
    x[66]     c1        742
    x[66]     OBJ       -788
    x[67]     c2        50
    x[67]     c3        258
    x[67]     c4        123
    x[67]     c5        135
    x[67]     c6        789
    x[67]     c7        420
    x[67]     c8        237
    x[67]     c9        493
    x[67]     c10       624
    x[67]     c11       270
    x[67]     c1        275
    x[67]     OBJ       -1056
    x[68]     c2        922
    x[68]     c3        897
    x[68]     c4        210
    x[68]     c5        674
    x[68]     c6        15
    x[68]     c7        939
    x[68]     c8        392
    x[68]     c9        235
    x[68]     c10       9
    x[68]     c11       515
    x[68]     c1        601
    x[68]     OBJ       -663
    x[69]     c2        910
    x[69]     c3        444
    x[69]     c4        958
    x[69]     c5        497
    x[69]     c6        937
    x[69]     c7        493
    x[69]     c8        856
    x[69]     c9        440
    x[69]     c10       84
    x[69]     c11       551
    x[69]     c1        951
    x[69]     OBJ       -669
    x[70]     c2        116
    x[70]     c3        399
    x[70]     c4        621
    x[70]     c5        424
    x[70]     c6        634
    x[70]     c7        63
    x[70]     c8        704
    x[70]     c9        406
    x[70]     c10       603
    x[70]     c11       545
    x[70]     c1        731
    x[70]     OBJ       -509
    x[71]     c2        327
    x[71]     c3        562
    x[71]     c4        603
    x[71]     c5        639
    x[71]     c6        139
    x[71]     c7        213
    x[71]     c8        83
    x[71]     c9        779
    x[71]     c10       158
    x[71]     c11       596
    x[71]     c1        166
    x[71]     OBJ       -1335
    x[72]     c2        515
    x[72]     c3        452
    x[72]     c4        677
    x[72]     c5        52
    x[72]     c6        654
    x[72]     c7        469
    x[72]     c8        755
    x[72]     c9        837
    x[72]     c10       223
    x[72]     c11       498
    x[72]     c1        659
    x[72]     OBJ       -787
    x[73]     c2        964
    x[73]     c3        486
    x[73]     c4        54
    x[73]     c5        439
    x[73]     c6        175
    x[73]     c7        933
    x[73]     c8        894
    x[73]     c9        606
    x[73]     c10       311
    x[73]     c11       508
    x[73]     c1        15
    x[73]     OBJ       -1492
    x[74]     c2        625
    x[74]     c3        45
    x[74]     c4        726
    x[74]     c5        605
    x[74]     c6        819
    x[74]     c7        695
    x[74]     c8        241
    x[74]     c9        440
    x[74]     c10       292
    x[74]     c11       460
    x[74]     c1        230
    x[74]     OBJ       -1091
    x[75]     c2        48
    x[75]     c3        977
    x[75]     c4        959
    x[75]     c5        539
    x[75]     c6        585
    x[75]     c7        198
    x[75]     c8        903
    x[75]     c9        25
    x[75]     c10       428
    x[75]     c11       261
    x[75]     c1        577
    x[75]     OBJ       -565
    x[76]     c2        470
    x[76]     c3        816
    x[76]     c4        782
    x[76]     c5        990
    x[76]     c6        534
    x[76]     c7        118
    x[76]     c8        194
    x[76]     c9        531
    x[76]     c10       72
    x[76]     c11       848
    x[76]     c1        807
    x[76]     OBJ       -788
    x[77]     c2        257
    x[77]     c3        562
    x[77]     c4        310
    x[77]     c5        180
    x[77]     c6        168
    x[77]     c7        317
    x[77]     c8        965
    x[77]     c9        111
    x[77]     c10       846
    x[77]     c11       13
    x[77]     c1        420
    x[77]     OBJ       -839
    x[78]     c2        546
    x[78]     c3        1000
    x[78]     c4        811
    x[78]     c5        217
    x[78]     c6        935
    x[78]     c7        179
    x[78]     c8        884
    x[78]     c9        886
    x[78]     c10       350
    x[78]     c11       24
    x[78]     c1        862
    x[78]     OBJ       -723
    x[79]     c2        786
    x[79]     c3        148
    x[79]     c4        770
    x[79]     c5        209
    x[79]     c6        816
    x[79]     c7        117
    x[79]     c8        553
    x[79]     c9        18
    x[79]     c10       366
    x[79]     c11       834
    x[79]     c1        974
    x[79]     OBJ       -419
    x[80]     c2        416
    x[80]     c3        182
    x[80]     c4        715
    x[80]     c5        291
    x[80]     c6        804
    x[80]     c7        784
    x[80]     c8        511
    x[80]     c9        742
    x[80]     c10       321
    x[80]     c11       672
    x[80]     c1        991
    x[80]     OBJ       -633
    x[81]     c2        746
    x[81]     c3        494
    x[81]     c4        237
    x[81]     c5        338
    x[81]     c6        869
    x[81]     c7        880
    x[81]     c8        959
    x[81]     c9        586
    x[81]     c10       932
    x[81]     c11       128
    x[81]     c1        795
    x[81]     OBJ       -845
    x[82]     c2        550
    x[82]     c3        644
    x[82]     c4        336
    x[82]     c5        880
    x[82]     c6        886
    x[82]     c7        495
    x[82]     c8        77
    x[82]     c9        436
    x[82]     c10       357
    x[82]     c11       229
    x[82]     c1        938
    x[82]     OBJ       -231
    x[83]     c2        949
    x[83]     c3        482
    x[83]     c4        51
    x[83]     c5        712
    x[83]     c6        419
    x[83]     c7        685
    x[83]     c8        209
    x[83]     c9        73
    x[83]     c10       43
    x[83]     c11       266
    x[83]     c1        792
    x[83]     OBJ       -478
    x[84]     c2        740
    x[84]     c3        955
    x[84]     c4        650
    x[84]     c5        956
    x[84]     c6        520
    x[84]     c7        60
    x[84]     c8        299
    x[84]     c9        256
    x[84]     c10       80
    x[84]     c11       378
    x[84]     c1        647
    x[84]     OBJ       -785
    x[85]     c2        623
    x[85]     c3        74
    x[85]     c4        443
    x[85]     c5        624
    x[85]     c6        992
    x[85]     c7        239
    x[85]     c8        585
    x[85]     c9        848
    x[85]     c10       957
    x[85]     c11       471
    x[85]     c1        59
    x[85]     OBJ       -1440
    x[86]     c2        352
    x[86]     c3        122
    x[86]     c4        770
    x[86]     c5        889
    x[86]     c6        81
    x[86]     c7        554
    x[86]     c8        511
    x[86]     c9        279
    x[86]     c10       411
    x[86]     c11       187
    x[86]     c1        991
    x[86]     OBJ       -354
    x[87]     c2        282
    x[87]     c3        961
    x[87]     c4        390
    x[87]     c5        155
    x[87]     c6        861
    x[87]     c7        950
    x[87]     c8        30
    x[87]     c9        513
    x[87]     c10       457
    x[87]     c11       545
    x[87]     c1        759
    x[87]     OBJ       -756
    x[88]     c2        665
    x[88]     c3        38
    x[88]     c4        7
    x[88]     c5        593
    x[88]     c6        433
    x[88]     c7        207
    x[88]     c8        5
    x[88]     c9        430
    x[88]     c10       685
    x[88]     c11       963
    x[88]     c1        627
    x[88]     OBJ       -640
    x[89]     c2        562
    x[89]     c3        402
    x[89]     c4        884
    x[89]     c5        397
    x[89]     c6        334
    x[89]     c7        923
    x[89]     c8        338
    x[89]     c9        539
    x[89]     c10       899
    x[89]     c11       16
    x[89]     c1        328
    x[89]     OBJ       -1134
    x[90]     c2        990
    x[90]     c3        397
    x[90]     c4        116
    x[90]     c5        306
    x[90]     c6        870
    x[90]     c7        311
    x[90]     c8        772
    x[90]     c9        148
    x[90]     c10       340
    x[90]     c11       676
    x[90]     c1        902
    x[90]     OBJ       -303
    x[91]     c2        666
    x[91]     c3        619
    x[91]     c4        620
    x[91]     c5        785
    x[91]     c6        610
    x[91]     c7        222
    x[91]     c8        261
    x[91]     c9        263
    x[91]     c10       503
    x[91]     c11       398
    x[91]     c1        629
    x[91]     OBJ       -732
    x[92]     c2        780
    x[92]     c3        515
    x[92]     c4        635
    x[92]     c5        478
    x[92]     c6        443
    x[92]     c7        281
    x[92]     c8        848
    x[92]     c9        348
    x[92]     c10       674
    x[92]     c11       104
    x[92]     c1        510
    x[92]     OBJ       -815
    x[93]     c2        592
    x[93]     c3        98
    x[93]     c4        110
    x[93]     c5        237
    x[93]     c6        136
    x[93]     c7        746
    x[93]     c8        202
    x[93]     c9        139
    x[93]     c10       729
    x[93]     c11       330
    x[93]     c1        103
    x[93]     OBJ       -1177
    x[94]     c2        337
    x[94]     c3        966
    x[94]     c4        82
    x[94]     c5        279
    x[94]     c6        964
    x[94]     c7        61
    x[94]     c8        984
    x[94]     c9        871
    x[94]     c10       640
    x[94]     c11       869
    x[94]     c1        788
    x[94]     OBJ       -721
    x[95]     c2        429
    x[95]     c3        686
    x[95]     c4        658
    x[95]     c5        134
    x[95]     c6        592
    x[95]     c7        646
    x[95]     c8        718
    x[95]     c9        992
    x[95]     c10       493
    x[95]     c11       597
    x[95]     c1        73
    x[95]     OBJ       -1326
    x[96]     c2        635
    x[96]     c3        487
    x[96]     c4        172
    x[96]     c5        727
    x[96]     c6        923
    x[96]     c7        673
    x[96]     c8        344
    x[96]     c9        677
    x[96]     c10       635
    x[96]     c11       200
    x[96]     c1        379
    x[96]     OBJ       -1109
    x[97]     c2        713
    x[97]     c3        908
    x[97]     c4        12
    x[97]     c5        143
    x[97]     c6        791
    x[97]     c7        426
    x[97]     c8        71
    x[97]     c9        48
    x[97]     c10       444
    x[97]     c11       648
    x[97]     c1        573
    x[97]     OBJ       -715
    x[98]     c2        705
    x[98]     c3        640
    x[98]     c4        206
    x[98]     c5        310
    x[98]     c6        235
    x[98]     c7        15
    x[98]     c8        876
    x[98]     c9        541
    x[98]     c10       162
    x[98]     c11       391
    x[98]     c1        783
    x[98]     OBJ       -610
    x[99]     c2        873
    x[99]     c3        710
    x[99]     c4        417
    x[99]     c5        348
    x[99]     c6        444
    x[99]     c7        813
    x[99]     c8        245
    x[99]     c9        210
    x[99]     c10       620
    x[99]     c11       65
    x[99]     c1        310
    x[99]     OBJ       -1055
    x[100]    c2        269
    x[100]    c3        315
    x[100]    c4        450
    x[100]    c5        595
    x[100]    c6        215
    x[100]    c7        313
    x[100]    c8        243
    x[100]    c9        936
    x[100]    c10       36
    x[100]    c11       972
    x[100]    c1        38
    x[100]    OBJ       -1325
RHS
    rhs       c2        39137
    rhs       c3        38215
    rhs       c4        36789
    rhs       c5        37841
    rhs       c6        41263
    rhs       c7        37520
    rhs       c8        37167
    rhs       c9        39842
    rhs       c10       36897
    rhs       c11       36284
    rhs       c1        38517
RANGES
BOUNDS
 LO bounds    ss[1]     0
 PL bounds    ss[1]
 MI bounds    s[1]
 UP bounds    s[1]      0
 MI bounds    s[2]
 UP bounds    s[2]      0
 MI bounds    s[3]
 UP bounds    s[3]      0
 MI bounds    s[4]
 UP bounds    s[4]      0
 MI bounds    s[5]
 UP bounds    s[5]      0
 MI bounds    s[6]
 UP bounds    s[6]      0
 MI bounds    s[7]
 UP bounds    s[7]      0
 MI bounds    s[8]
 UP bounds    s[8]      0
 MI bounds    s[9]
 UP bounds    s[9]      0
 MI bounds    s[10]
 UP bounds    s[10]     0
 BV bounds    x[1]
 BV bounds    x[2]
 BV bounds    x[3]
 BV bounds    x[4]
 BV bounds    x[5]
 BV bounds    x[6]
 BV bounds    x[7]
 BV bounds    x[8]
 BV bounds    x[9]
 BV bounds    x[10]
 BV bounds    x[11]
 BV bounds    x[12]
 BV bounds    x[13]
 BV bounds    x[14]
 BV bounds    x[15]
 BV bounds    x[16]
 BV bounds    x[17]
 BV bounds    x[18]
 BV bounds    x[19]
 BV bounds    x[20]
 BV bounds    x[21]
 BV bounds    x[22]
 BV bounds    x[23]
 BV bounds    x[24]
 BV bounds    x[25]
 BV bounds    x[26]
 BV bounds    x[27]
 BV bounds    x[28]
 BV bounds    x[29]
 BV bounds    x[30]
 BV bounds    x[31]
 BV bounds    x[32]
 BV bounds    x[33]
 BV bounds    x[34]
 BV bounds    x[35]
 BV bounds    x[36]
 BV bounds    x[37]
 BV bounds    x[38]
 BV bounds    x[39]
 BV bounds    x[40]
 BV bounds    x[41]
 BV bounds    x[42]
 BV bounds    x[43]
 BV bounds    x[44]
 BV bounds    x[45]
 BV bounds    x[46]
 BV bounds    x[47]
 BV bounds    x[48]
 BV bounds    x[49]
 BV bounds    x[50]
 BV bounds    x[51]
 BV bounds    x[52]
 BV bounds    x[53]
 BV bounds    x[54]
 BV bounds    x[55]
 BV bounds    x[56]
 BV bounds    x[57]
 BV bounds    x[58]
 BV bounds    x[59]
 BV bounds    x[60]
 BV bounds    x[61]
 BV bounds    x[62]
 BV bounds    x[63]
 BV bounds    x[64]
 BV bounds    x[65]
 BV bounds    x[66]
 BV bounds    x[67]
 BV bounds    x[68]
 BV bounds    x[69]
 BV bounds    x[70]
 BV bounds    x[71]
 BV bounds    x[72]
 BV bounds    x[73]
 BV bounds    x[74]
 BV bounds    x[75]
 BV bounds    x[76]
 BV bounds    x[77]
 BV bounds    x[78]
 BV bounds    x[79]
 BV bounds    x[80]
 BV bounds    x[81]
 BV bounds    x[82]
 BV bounds    x[83]
 BV bounds    x[84]
 BV bounds    x[85]
 BV bounds    x[86]
 BV bounds    x[87]
 BV bounds    x[88]
 BV bounds    x[89]
 BV bounds    x[90]
 BV bounds    x[91]
 BV bounds    x[92]
 BV bounds    x[93]
 BV bounds    x[94]
 BV bounds    x[95]
 BV bounds    x[96]
 BV bounds    x[97]
 BV bounds    x[98]
 BV bounds    x[99]
 BV bounds    x[100]
ENDATA
